1
1000
120
499 1
498 1
495 1
495 1
494 1
491 1
485 1
480 1
466 1
464 1
463 1
458 1
451 1
445 1
444 1
440 1
435 1
434 1
430 1
429 1
428 1
427 1
426 1
426 1
413 1
412 1
399 1
398 1
395 1
381 1
376 1
373 1
370 1
370 1
370 1
368 1
368 1
367 1
362 1
361 1
360 1
358 1
357 1
351 1
350 1
350 1
349 1
347 1
344 1
344 1
343 1
332 1
330 1
329 1
323 1
320 1
315 1
311 1
309 1
306 1
304 1
300 1
300 1
299 1
297 1
294 1
290 1
289 1
288 1
287 1
286 1
286 1
286 1
283 1
283 1
282 1
281 1
280 1
279 1
277 1
277 1
275 1
274 1
274 1
274 1
273 1
272 1
272 1
271 1
270 1
268 1
267 1
265 1
263 1
263 1
262 1
261 1
259 1
258 1
258 1
257 1
257 1
256 1
256 1
255 1
255 1
255 1
254 1
254 1
253 1
253 1
252 1
251 1
251 1
250 1
250 1
250 1
250 1
250 1
250 1
